StudentsNr = 10;
InstructorsNr = 98;
DaysNr = 1;
SlotsPerDay = 20;
AvailabilitySlotsLenght = 5;
RoomNr = 2;
ProgrammNr = 2;
DegreeNr = 2;
RolesNr = 3;
CoursesNr = 8;
InstructorsProgramm = [{1}, {2}, {2}, {2}, {1}, {1, 2}, {1}, {2}, {1}, {2}, {1, 2}, {2}, {2}, {1}, {1}, {2}, {2}, {2}, {1}, {2}, {1}, {1}, {1, 2}, {2}, {1}, {2}, {2}, {1, 2}, {2}, {1}, {1}, {1}, {2}, {2}, {1, 2}, {1, 2}, {2}, {2}, {1, 2}, {1, 2}, {1}, {1}, {1}, {1, 2}, {1}, {1, 2}, {1, 2}, {2}, {1, 2}, {2}, {1, 2}, {1, 2}, {1, 2}, {1}, {1, 2}, {1}, {1}, {1}, {1}, {1, 2}, {2}, {2}, {1}, {1, 2}, {2}, {1}, {2}, {1, 2}, {2}, {1}, {2}, {1}, {1}, {2}, {1}, {1, 2}, {1, 2}, {1}, {1, 2}, {2}, {1, 2}, {1, 2}, {1, 2}, {1}, {1}, {2}, {1, 2}, {2}, {2}, {1}, {2}, {1}, {2}, {1, 2}, {2}, {2}, {2}, {1}];
InstructorRolesPerProgramm = [|{5, 6, 7, 14, 21, 31, 41, 46, 51, 52, 53, 54, 55, 56, 59, 70, 72, 75, 76, 77, 82, 83, 87}, {6, 9, 11, 14, 15, 22, 25, 31, 35, 36, 39, 40, 41, 43, 45, 46, 47, 49, 53, 56, 57, 59, 63, 66, 70, 73, 77}, {5, 6, 7, 9, 11, 14, 21, 28, 32, 39, 41, 42, 43, 44, 46, 47, 49, 53, 56, 57, 60, 64, 70, 72, 73, 78, 83, 84, 87, 90, 92}|{6, 16, 26, 27, 29, 33, 34, 46, 48, 51, 52, 53, 55, 65, 67, 69, 71, 74, 76, 77, 80, 82, 83, 86, 87, 89, 93}, {2, 6, 11, 17, 29, 33, 34, 35, 36, 39, 40, 46, 47, 49, 53, 67, 77, 80, 86, 91}, {2, 4, 6, 11, 18, 28, 33, 39, 44, 46, 47, 48, 49, 53, 60, 64, 83, 87, 89, 91}|];
InstructorsAvailability = [|0, 0, 0, 0, |1, 1, 1, 0, |0, 0, 0, 1, |0, 0, 0, 0, |1, 1, 1, 1, |0, 0, 1, 1, |0, 0, 0, 1, |1, 1, 1, 1, |1, 1, 1, 1, |1, 1, 1, 1, |0, 1, 0, 1, |0, 1, 0, 0, |1, 1, 1, 1, |0, 0, 1, 1, |0, 0, 1, 1, |0, 1, 1, 0, |1, 1, 1, 1, |0, 0, 0, 0, |1, 1, 1, 0, |1, 1, 1, 1, |1, 1, 1, 1, |0, 1, 1, 1, |0, 1, 1, 1, |1, 0, 1, 1, |1, 1, 1, 1, |0, 1, 1, 1, |0, 1, 1, 1, |0, 1, 1, 1, |1, 1, 1, 1, |0, 1, 1, 1, |0, 0, 0, 0, |0, 1, 0, 1, |1, 0, 0, 1, |0, 0, 1, 1, |0, 0, 0, 1, |1, 1, 1, 0, |1, 1, 1, 1, |0, 1, 0, 1, |0, 1, 1, 1, |1, 1, 1, 1, |1, 0, 0, 0, |1, 1, 1, 1, |1, 1, 1, 1, |0, 1, 1, 1, |0, 0, 1, 1, |1, 0, 1, 1, |0, 1, 1, 1, |0, 1, 1, 1, |0, 1, 0, 1, |0, 1, 1, 1, |1, 1, 0, 0, |1, 0, 1, 1, |0, 1, 1, 1, |1, 0, 1, 0, |1, 1, 1, 1, |0, 1, 1, 1, |0, 0, 0, 0, |1, 1, 1, 0, |0, 1, 1, 1, |1, 1, 0, 1, |0, 0, 1, 1, |0, 1, 0, 1, |1, 1, 1, 1, |1, 1, 1, 1, |0, 0, 0, 0, |1, 0, 1, 0, |1, 1, 1, 1, |1, 1, 1, 1, |0, 1, 1, 0, |0, 1, 1, 1, |0, 0, 1, 1, |0, 1, 1, 1, |1, 1, 1, 0, |1, 0, 0, 1, |0, 1, 1, 0, |1, 1, 1, 1, |1, 1, 1, 1, |0, 1, 1, 1, |1, 1, 1, 1, |0, 1, 1, 1, |0, 0, 1, 1, |0, 1, 1, 1, |0, 1, 1, 0, |1, 1, 1, 1, |0, 0, 0, 0, |1, 1, 0, 1, |1, 1, 1, 0, |1, 1, 1, 1, |1, 1, 1, 1, |1, 1, 1, 1, |1, 1, 1, 1, |1, 1, 1, 1, |0, 0, 1, 1, |0, 0, 0, 1, |0, 1, 0, 1, |0, 0, 1, 1, |0, 1, 1, 1, |1, 1, 0, 0|];
StudentsProgramm = [1, 2, 1, 2, 2, 2, 1, 1, 2, 1];
StudentsDegree = [1, 2, 2, 1, 1, 1, 1, 2, 2, 2];
StudentsSupervisorId = [73, 34, 72, 20, 52, 39, 1, 36, 13, 84];
StudentsCourseIds = [{1, 2, 4, 5, 6, 7, 8}, {8}, {4}, {1, 2, 4, 5, 6, 7, 8}, {2, 3, 4, 5, 6, 7, 8}, {1, 2, 4, 5, 6, 7, 8}, {1, 2, 3, 4, 5, 6, 8}, {7}, {2}, {4}];
StudentsAvailability = [|1, 1, 0, 0, |1, 1, 1, 0, |0, 0, 1, 1, |0, 0, 1, 1, |1, 1, 1, 1, |0, 1, 1, 1, |1, 1, 1, 1, |1, 1, 1, 1, |1, 1, 1, 1, |1, 1, 1, 1|];
TheoryticalMinCard = [1, 0, 1, 0, 0, 0, 1, 0, 0, 1];
CoursesInstructorIds = [{1, 2, 4, 5, 9, 10, 11, 12, 13, 14, 15, 17, 18, 19, 20, 21, 22, 24, 26, 27, 30, 32, 33, 35, 38, 48, 49, 51, 54, 59, 61, 62, 64, 65, 66, 68, 69, 70, 71, 73, 76, 77, 82, 83, 85, 87, 92, 95}, {13, 18, 19, 23, 27, 41, 43, 44, 48, 51, 61, 74, 76, 78, 79, 84, 98}, {5, 8, 11, 13, 19, 21, 22, 27, 28, 30, 31, 37, 39, 43, 45, 47, 50, 61, 68, 70, 74, 78, 83, 92, 96, 97}, {24, 30, 71, 95}, {1, 3, 8, 24, 26, 27, 30, 32, 36, 39, 41, 47, 48, 50, 52, 57, 58, 59, 67, 70, 79, 82, 87, 91}, {6, 7, 10, 15, 19, 25, 27, 30, 31, 35, 37, 40, 41, 42, 44, 46, 53, 54, 55, 56, 60, 61, 62, 63, 64, 70, 71, 73, 74, 75, 76, 77, 78, 94, 96, 97, 98}, {2, 3, 4, 5, 7, 8, 9, 10, 12, 13, 16, 19, 23, 24, 25, 27, 29, 30, 31, 33, 34, 38, 41, 43, 44, 45, 46, 47, 48, 50, 53, 55, 58, 59, 65, 67, 68, 69, 70, 71, 72, 73, 75, 77, 78, 81, 82, 83, 84, 85, 87, 89, 92, 95, 96, 97}, {4, 6, 10, 21, 35, 48, 52, 53, 59, 77, 83, 87, 88, 90, 98}];
RolesDemands = [7, 8, 12];
RolesContinuity = [3, 2];
ExamLen = [2, 2, 2, 2, 2, 2, 2, 2, 2, 2];
LunchTsMinLen = 1;
LunchStarts = [9..14];
SupervisorAvailable = 5;
OptimalLunchLenght = [3, 2];
OptimalStartTs = [1, 0];
OptimalFinishTs = [2, 20];
MinimizeRooms = 300;
RolesSoftContinuity = [|1, 2, 3|2, 3, 1|];
SameDegreeInRoom = 20;
Mergeability = 0;
